(set-info :status unsat)
(set-logic QF_NRA)
(set-info :source | Simple test example.|)
(set-info :smt-lib-version 2.0)
(declare-fun x () Real)
(declare-fun y () Real)
(assert (< x 1))
(assert (and (> (/ y 3) 2) (<= (/ 1 (+ x (/ 1 (- y 2)))) 3)))
(checksat)
